(set-logic HORN)
(declare-fun state (Int Int Int (Array Int Int) Int Int Int (Array Int Int) Bool Bool) Bool)
(assert (forall ((|A_0| Int) (|D_0| Int) (|.y.11| Int) (|C_0| (Array Int Int)) (|B_0| Int) (|F_0| Int) (|.y.12| Int) (|E_0| (Array Int Int)) (|.loc.13| Bool) (|.loc.14| Bool) (|.loc.23| Bool) (|.loc.24| Bool) (|.y.20| Int) (|.y.16| Int) (|.y.15| Int) (|.y.22| (Array Int Int)) (|.y.19| Int) (|.y.18| (Array Int Int)) (|.y.21| Int) (|.y.17| Int)) (=> (and (and .loc.13 (not .loc.14)) (and (and (= D_0 F_0) (= C_0 E_0)) (= A_0 B_0))) (state |A_0| |D_0| |.y.11| |C_0| |B_0| |F_0| |.y.12| |E_0| |.loc.13| |.loc.14|))))
(assert (forall ((|A_0| Int) (|D_0| Int) (|.y.11| Int) (|C_0| (Array Int Int)) (|B_0| Int) (|F_0| Int) (|.y.12| Int) (|E_0| (Array Int Int)) (|.loc.13| Bool) (|.loc.14| Bool) (|.loc.23| Bool) (|.loc.24| Bool) (|.y.20| Int) (|.y.16| Int) (|.y.15| Int) (|.y.22| (Array Int Int)) (|.y.19| Int) (|.y.18| (Array Int Int)) (|.y.21| Int) (|.y.17| Int)) (=> (and (state |A_0| |D_0| |.y.11| |C_0| |B_0| |F_0| |.y.12| |E_0| |.loc.13| |.loc.14|) (let ((.def_29 (not .loc.23))) (let ((.def_34 (= (select E_0 F_0) 0))) (let ((.def_35 (not .def_34))) (let ((.def_37 (= (select C_0 D_0) 0))) (let ((.def_39 (not .def_37))) (let ((.def_43 (not (= C_0 E_0)))) (let ((.def_47 (select C_0 A_0))) (let ((.def_48 (= .def_47 0))) (let ((.def_49 (not .def_48))) (let ((.def_50 (not .loc.13))) (let ((.def_53 (= .def_47 (select C_0 .y.11)))) (let ((.def_54 (and (and .def_49 .def_50) .def_53))) (let ((.def_56 (select E_0 (+ B_0 F_0)))) (let ((.def_57 (= .def_56 0))) (let ((.def_61 (not .def_57))) (let ((.def_64 (= .def_56 (select E_0 .y.12)))) (let ((.def_94 (not .loc.24))) (let ((.def_97 (= E_0 .y.22))) (let ((.def_100 (= B_0 .y.19))) (let ((.def_103 (= C_0 .y.18))) (let ((.def_109 (and .def_29 .def_50))) (let ((.def_110 (and .def_49 .def_109))) (let ((.def_117 (= .y.12 .y.21))) (let ((.def_120 (= .y.11 .y.17))) (let ((.def_122 (= D_0 .y.16))) (let ((.def_126 (= (+ A_0 (* (- 1) .y.15)) (- 1)))) (let ((.def_129 (= (+ F_0 (* (- 1) .y.20)) (- 1)))) (let ((.def_131 (not .def_64))) (let ((.def_133 (not .def_53))) (let ((.def_161 (= A_0 .y.15))) (and (not .loc.14) (or (or (or (or (or (and (and .def_29 .loc.24) (or (or (or (and .loc.13 (or (or (and .def_35 .def_37) (and .def_34 .def_39)) (and (and .def_34 .def_37) .def_43))) (and .def_54 .def_57)) (and (and (and .def_48 .def_50) .def_61) .def_64)) (and (or .def_43 (not (= .y.11 .y.12))) (and .def_64 (and .def_54 .def_61))))) (and (= (+ .y.12 (* (- 1) .y.20)) (- 1)) (and (= (+ .y.11 (* (- 1) .y.16)) (- 1)) (and (= D_0 .y.15) (and (and (and (and (and .def_57 (and .def_48 (and .loc.23 .def_50))) .def_94) .def_97) .def_100) .def_103))))) (and (and (and (and (and (and (and (and .def_103 (and .def_100 (and .def_97 (and .def_94 (and .def_61 .def_110))))) .def_117) .def_120) .def_122) .def_126) .def_129) .def_131) .def_133)) (and (or .def_57 .def_64) (and (= F_0 .y.20) (and .def_133 (and .def_126 (and .def_122 (and .def_120 (and .def_117 (and .def_103 (and .def_100 (and .def_97 (and .def_94 .def_110)))))))))))) (and (or .def_48 .def_53) (and (and .def_131 (and .def_129 (and .def_122 (and .def_120 (and .def_117 (and .def_103 (and .def_100 (and .def_97 (and .def_94 (and .def_61 .def_109)))))))))) .def_161))) (and (= A_0 .y.16) (and (= .y.20 0) (and (= D_0 .y.17) (and (= F_0 .y.21) (and .def_161 (and .def_103 (and .def_100 (and .def_97 (and .def_94 (and .def_29 (and .loc.13 (and .def_35 .def_39))))))))))))))))))))))))))))))))))))))))))))) (state |.y.15| |.y.16| |.y.17| |.y.18| |.y.19| |.y.20| |.y.21| |.y.22| |.loc.23| |.loc.24|))))
(assert (forall ((|A_0| Int) (|D_0| Int) (|.y.11| Int) (|C_0| (Array Int Int)) (|B_0| Int) (|F_0| Int) (|.y.12| Int) (|E_0| (Array Int Int)) (|.loc.13| Bool) (|.loc.14| Bool) (|.loc.23| Bool) (|.loc.24| Bool) (|.y.20| Int) (|.y.16| Int) (|.y.15| Int) (|.y.22| (Array Int Int)) (|.y.19| Int) (|.y.18| (Array Int Int)) (|.y.21| Int) (|.y.17| Int)) (=> (state |A_0| |D_0| |.y.11| |C_0| |B_0| |F_0| |.y.12| |E_0| |.loc.13| |.loc.14|) (not (and .loc.14 (not .loc.13))))))
(check-sat)
